\* The_Diet_Problem *\
Minimize
OBJ: 0.23 amount_2%_Lowfat_Milk + 0.16 amount_3.3%_Fat,Whole_Milk
 + 0.24 amount_Apple,Raw,W_Skin + 0.16 amount_Apple_Pie + 0.16 amount_Bagels
 + 0.15 amount_Banana + 0.67 amount_Beanbacn_Soup,W_Watr
 + 0.15 amount_Bologna,Turkey + 0.05 amount_Butter,Regular
 + 0.31 amount_Cap'N_Crunch + 0.07 amount_Carrots,Raw
 + 0.04 amount_Celery,_Raw + 0.25 amount_Cheddar_Cheese + 0.28 amount_Cheerios
 + 0.39 amount_Chicknoodl_Soup + 0.03 amount_Chocolate_Chip_Cookies
 + 0.28 amount_Corn_Flks,_Kellogg'S + 0.39 amount_Couscous
 + 0.65 amount_Crm_Mshrm_Soup,W_Mlk + 0.27 amount_Frankfurter,_Beef
 + 0.16 amount_Frozen_Broccoli + 0.18 amount_Frozen_Corn + 0.32 amount_Grapes
 + 0.33 amount_Ham,Sliced,Extralean + 0.83 amount_Hamburger_W_Toppings
 + 0.31 amount_Hotdog,_Plain + 0.15 amount_Kielbasa,Prk
 + 0.49 amount_Kiwifruit,Raw,Fresh + 0.02 amount_Lettuce,Iceberg,Raw
 + 0.17 amount_Macaroni,Ckd + 0.52 amount_Malt_O_Meal,Choc
 + 0.99 amount_New_E_Clamchwd,W_Mlk + 0.75 amount_Neweng_Clamchwd
 + 0.82 amount_Oatmeal + 0.09 amount_Oatmeal_Cookies + 0.15 amount_Oranges
 + 0.07 amount_Peanut_Butter + 0.53 amount_Peppers,_Sweet,_Raw
 + 0.44 amount_Pizza_W_Pepperoni + 0.08 amount_Poached_Eggs
 + 0.04 amount_Popcorn,Air_Popped + 0.81 amount_Pork
 + 0.22 amount_Potato_Chips,Bbqflvr + 0.06 amount_Potatoes,_Baked
 + 0.12 amount_Pretzels + 0.34 amount_Raisin_Brn,_Kellg'S
 + 0.32 amount_Rice_Krispies + 0.84 amount_Roasted_Chicken
 + 0.45 amount_Sardines_in_Oil + 0.11 amount_Scrambled_Eggs
 + 0.13 amount_Skim_Milk + 0.78 amount_Spaghetti_W__Sauce
 + 0.38 amount_Special_K + 0.67 amount_Splt_Pea&Hamsoup + 0.59 amount_Taco
 + 0.31 amount_Tofu + 0.27 amount_Tomato,Red,Ripe,Raw
 + 0.39 amount_Tomato_Soup + 0.19 amount_Tortilla_Chip
 + 0.71 amount_Vegetbeef_Soup + 0.05 amount_Wheat_Bread
 + 0.06 amount_White_Bread + 0.08 amount_White_Rice
 + 0.69 amount_White_Tuna_in_Water
Subject To
_C1: 121.2 amount_2%_Lowfat_Milk + 149.9 amount_3.3%_Fat,Whole_Milk
 + 81.4 amount_Apple,Raw,W_Skin + 67.2 amount_Apple_Pie + 78 amount_Bagels
 + 104.9 amount_Banana + 172 amount_Beanbacn_Soup,W_Watr
 + 56.4 amount_Bologna,Turkey + 35.8 amount_Butter,Regular
 + 119.6 amount_Cap'N_Crunch + 23.7 amount_Carrots,Raw
 + 6.4 amount_Celery,_Raw + 112.7 amount_Cheddar_Cheese + 111 amount_Cheerios
 + 150.1 amount_Chicknoodl_Soup + 78.1 amount_Chocolate_Chip_Cookies
 + 110.5 amount_Corn_Flks,_Kellogg'S + 100.8 amount_Couscous
 + 203.4 amount_Crm_Mshrm_Soup,W_Mlk + 141.8 amount_Frankfurter,_Beef
 + 73.8 amount_Frozen_Broccoli + 72.2 amount_Frozen_Corn + 15.1 amount_Grapes
 + 37.1 amount_Ham,Sliced,Extralean + 275 amount_Hamburger_W_Toppings
 + 242.1 amount_Hotdog,_Plain + 80.6 amount_Kielbasa,Prk
 + 46.4 amount_Kiwifruit,Raw,Fresh + 2.6 amount_Lettuce,Iceberg,Raw
 + 98.7 amount_Macaroni,Ckd + 607.2 amount_Malt_O_Meal,Choc
 + 163.7 amount_New_E_Clamchwd,W_Mlk + 175.7 amount_Neweng_Clamchwd
 + 145.1 amount_Oatmeal + 81 amount_Oatmeal_Cookies + 61.6 amount_Oranges
 + 188.5 amount_Peanut_Butter + 20 amount_Peppers,_Sweet,_Raw
 + 181 amount_Pizza_W_Pepperoni + 74.5 amount_Poached_Eggs
 + 108.3 amount_Popcorn,Air_Popped + 710.8 amount_Pork
 + 139.2 amount_Potato_Chips,Bbqflvr + 171.5 amount_Potatoes,_Baked
 + 108 amount_Pretzels + 115.1 amount_Raisin_Brn,_Kellg'S
 + 112.2 amount_Rice_Krispies + 277.4 amount_Roasted_Chicken
 + 49.9 amount_Sardines_in_Oil + 99.6 amount_Scrambled_Eggs
 + 85.5 amount_Skim_Milk + 358.2 amount_Spaghetti_W__Sauce
 + 110.8 amount_Special_K + 184.8 amount_Splt_Pea&Hamsoup + 369.4 amount_Taco
 + 88.2 amount_Tofu + 25.8 amount_Tomato,Red,Ripe,Raw
 + 170.7 amount_Tomato_Soup + 142 amount_Tortilla_Chip
 + 158.1 amount_Vegetbeef_Soup + 65 amount_Wheat_Bread + 65 amount_White_Bread
 + 102.7 amount_White_Rice + 115.6 amount_White_Tuna_in_Water <= 2500
_C10: 11.7 amount_2%_Lowfat_Milk + 11.4 amount_3.3%_Fat,Whole_Milk
 + 21 amount_Apple,Raw,W_Skin + 9.6 amount_Apple_Pie + 15.1 amount_Bagels
 + 26.7 amount_Banana + 22.8 amount_Beanbacn_Soup,W_Watr
 + 0.3 amount_Bologna,Turkey + 23 amount_Cap'N_Crunch + 5.6 amount_Carrots,Raw
 + 1.5 amount_Celery,_Raw + 0.4 amount_Cheddar_Cheese + 19.6 amount_Cheerios
 + 18.7 amount_Chicknoodl_Soup + 9.3 amount_Chocolate_Chip_Cookies
 + 24.5 amount_Corn_Flks,_Kellogg'S + 20.9 amount_Couscous
 + 15 amount_Crm_Mshrm_Soup,W_Mlk + 0.8 amount_Frankfurter,_Beef
 + 13.6 amount_Frozen_Broccoli + 17.1 amount_Frozen_Corn + 4.1 amount_Grapes
 + 0.3 amount_Ham,Sliced,Extralean + 32.7 amount_Hamburger_W_Toppings
 + 18 amount_Hotdog,_Plain + 0.6 amount_Kielbasa,Prk
 + 11.3 amount_Kiwifruit,Raw,Fresh + 0.4 amount_Lettuce,Iceberg,Raw
 + 19.8 amount_Macaroni,Ckd + 128.2 amount_Malt_O_Meal,Choc
 + 16.6 amount_New_E_Clamchwd,W_Mlk + 21.8 amount_Neweng_Clamchwd
 + 25.3 amount_Oatmeal + 12.4 amount_Oatmeal_Cookies + 15.4 amount_Oranges
 + 6.9 amount_Peanut_Butter + 4.8 amount_Peppers,_Sweet,_Raw
 + 19.9 amount_Pizza_W_Pepperoni + 0.6 amount_Poached_Eggs
 + 22.1 amount_Popcorn,Air_Popped + 15 amount_Potato_Chips,Bbqflvr
 + 39.9 amount_Potatoes,_Baked + 22.5 amount_Pretzels
 + 27.9 amount_Raisin_Brn,_Kellg'S + 24.8 amount_Rice_Krispies
 + 1.3 amount_Scrambled_Eggs + 11.9 amount_Skim_Milk
 + 58.3 amount_Spaghetti_W__Sauce + 21.3 amount_Special_K
 + 26.8 amount_Splt_Pea&Hamsoup + 26.7 amount_Taco + 2.2 amount_Tofu
 + 5.7 amount_Tomato,Red,Ripe,Raw + 33.2 amount_Tomato_Soup
 + 17.8 amount_Tortilla_Chip + 20.4 amount_Vegetbeef_Soup
 + 12.4 amount_Wheat_Bread + 11.8 amount_White_Bread + 22.3 amount_White_Rice
 >= 130
_C11: 3.7 amount_Apple,Raw,W_Skin + 0.5 amount_Apple_Pie + 0.6 amount_Bagels
 + 2.7 amount_Banana + 8.6 amount_Beanbacn_Soup,W_Watr
 + 0.5 amount_Cap'N_Crunch + 1.6 amount_Carrots,Raw + 0.7 amount_Celery,_Raw
 + 2 amount_Cheerios + 1.5 amount_Chicknoodl_Soup
 + 0.7 amount_Corn_Flks,_Kellogg'S + 1.3 amount_Couscous
 + 0.5 amount_Crm_Mshrm_Soup,W_Mlk + 8.5 amount_Frozen_Broccoli
 + 2 amount_Frozen_Corn + 0.2 amount_Grapes + 2.6 amount_Kiwifruit,Raw,Fresh
 + 0.3 amount_Lettuce,Iceberg,Raw + 0.9 amount_Macaroni,Ckd
 + 1.5 amount_New_E_Clamchwd,W_Mlk + 1.5 amount_Neweng_Clamchwd
 + 4 amount_Oatmeal + 0.6 amount_Oatmeal_Cookies + 3.1 amount_Oranges
 + 2.1 amount_Peanut_Butter + 1.3 amount_Peppers,_Sweet,_Raw
 + 4.3 amount_Popcorn,Air_Popped + 1.2 amount_Potato_Chips,Bbqflvr
 + 3.2 amount_Potatoes,_Baked + 0.9 amount_Pretzels
 + 4 amount_Raisin_Brn,_Kellg'S + 0.4 amount_Rice_Krispies
 + 11.6 amount_Spaghetti_W__Sauce + 0.7 amount_Special_K
 + 4.1 amount_Splt_Pea&Hamsoup + 1.4 amount_Tofu
 + 1.4 amount_Tomato,Red,Ripe,Raw + amount_Tomato_Soup
 + 1.8 amount_Tortilla_Chip + 4 amount_Vegetbeef_Soup + 1.3 amount_Wheat_Bread
 + 1.1 amount_White_Bread + 0.3 amount_White_Rice <= 250
_C12: 3.7 amount_Apple,Raw,W_Skin + 0.5 amount_Apple_Pie + 0.6 amount_Bagels
 + 2.7 amount_Banana + 8.6 amount_Beanbacn_Soup,W_Watr
 + 0.5 amount_Cap'N_Crunch + 1.6 amount_Carrots,Raw + 0.7 amount_Celery,_Raw
 + 2 amount_Cheerios + 1.5 amount_Chicknoodl_Soup
 + 0.7 amount_Corn_Flks,_Kellogg'S + 1.3 amount_Couscous
 + 0.5 amount_Crm_Mshrm_Soup,W_Mlk + 8.5 amount_Frozen_Broccoli
 + 2 amount_Frozen_Corn + 0.2 amount_Grapes + 2.6 amount_Kiwifruit,Raw,Fresh
 + 0.3 amount_Lettuce,Iceberg,Raw + 0.9 amount_Macaroni,Ckd
 + 1.5 amount_New_E_Clamchwd,W_Mlk + 1.5 amount_Neweng_Clamchwd
 + 4 amount_Oatmeal + 0.6 amount_Oatmeal_Cookies + 3.1 amount_Oranges
 + 2.1 amount_Peanut_Butter + 1.3 amount_Peppers,_Sweet,_Raw
 + 4.3 amount_Popcorn,Air_Popped + 1.2 amount_Potato_Chips,Bbqflvr
 + 3.2 amount_Potatoes,_Baked + 0.9 amount_Pretzels
 + 4 amount_Raisin_Brn,_Kellg'S + 0.4 amount_Rice_Krispies
 + 11.6 amount_Spaghetti_W__Sauce + 0.7 amount_Special_K
 + 4.1 amount_Splt_Pea&Hamsoup + 1.4 amount_Tofu
 + 1.4 amount_Tomato,Red,Ripe,Raw + amount_Tomato_Soup
 + 1.8 amount_Tortilla_Chip + 4 amount_Vegetbeef_Soup + 1.3 amount_Wheat_Bread
 + 1.1 amount_White_Bread + 0.3 amount_White_Rice >= 125
_C13: 8.1 amount_2%_Lowfat_Milk + 8 amount_3.3%_Fat,Whole_Milk
 + 0.3 amount_Apple,Raw,W_Skin + 0.5 amount_Apple_Pie + 3 amount_Bagels
 + 1.2 amount_Banana + 7.9 amount_Beanbacn_Soup,W_Watr
 + 3.9 amount_Bologna,Turkey + 1.4 amount_Cap'N_Crunch
 + 0.6 amount_Carrots,Raw + 0.3 amount_Celery,_Raw + 7 amount_Cheddar_Cheese
 + 4.3 amount_Cheerios + 7.9 amount_Chicknoodl_Soup
 + 0.9 amount_Chocolate_Chip_Cookies + 2.3 amount_Corn_Flks,_Kellogg'S
 + 3.4 amount_Couscous + 6.1 amount_Crm_Mshrm_Soup,W_Mlk
 + 5.4 amount_Frankfurter,_Beef + 8 amount_Frozen_Broccoli
 + 2.5 amount_Frozen_Corn + 0.2 amount_Grapes
 + 5.5 amount_Ham,Sliced,Extralean + 13.6 amount_Hamburger_W_Toppings
 + 10.4 amount_Hotdog,_Plain + 3.4 amount_Kielbasa,Prk
 + 0.8 amount_Kiwifruit,Raw,Fresh + 0.2 amount_Lettuce,Iceberg,Raw
 + 3.3 amount_Macaroni,Ckd + 17.3 amount_Malt_O_Meal,Choc
 + 9.5 amount_New_E_Clamchwd,W_Mlk + 10.9 amount_Neweng_Clamchwd
 + 6.1 amount_Oatmeal + 1.1 amount_Oatmeal_Cookies + 1.2 amount_Oranges
 + 7.7 amount_Peanut_Butter + 0.7 amount_Peppers,_Sweet,_Raw
 + 10.1 amount_Pizza_W_Pepperoni + 6.2 amount_Poached_Eggs
 + 3.4 amount_Popcorn,Air_Popped + 13.8 amount_Pork
 + 2.2 amount_Potato_Chips,Bbqflvr + 3.7 amount_Potatoes,_Baked
 + 2.6 amount_Pretzels + 4 amount_Raisin_Brn,_Kellg'S
 + 1.9 amount_Rice_Krispies + 42.2 amount_Roasted_Chicken
 + 5.9 amount_Sardines_in_Oil + 6.7 amount_Scrambled_Eggs
 + 8.4 amount_Skim_Milk + 8.2 amount_Spaghetti_W__Sauce + 5.6 amount_Special_K
 + 11.1 amount_Splt_Pea&Hamsoup + 20.7 amount_Taco + 9.4 amount_Tofu
 + amount_Tomato,Red,Ripe,Raw + 4.1 amount_Tomato_Soup
 + 2 amount_Tortilla_Chip + 11.2 amount_Vegetbeef_Soup
 + 2.2 amount_Wheat_Bread + 2.3 amount_White_Bread + 2.1 amount_White_Rice
 + 22.7 amount_White_Tuna_in_Water <= 100
_C14: 8.1 amount_2%_Lowfat_Milk + 8 amount_3.3%_Fat,Whole_Milk
 + 0.3 amount_Apple,Raw,W_Skin + 0.5 amount_Apple_Pie + 3 amount_Bagels
 + 1.2 amount_Banana + 7.9 amount_Beanbacn_Soup,W_Watr
 + 3.9 amount_Bologna,Turkey + 1.4 amount_Cap'N_Crunch
 + 0.6 amount_Carrots,Raw + 0.3 amount_Celery,_Raw + 7 amount_Cheddar_Cheese
 + 4.3 amount_Cheerios + 7.9 amount_Chicknoodl_Soup
 + 0.9 amount_Chocolate_Chip_Cookies + 2.3 amount_Corn_Flks,_Kellogg'S
 + 3.4 amount_Couscous + 6.1 amount_Crm_Mshrm_Soup,W_Mlk
 + 5.4 amount_Frankfurter,_Beef + 8 amount_Frozen_Broccoli
 + 2.5 amount_Frozen_Corn + 0.2 amount_Grapes
 + 5.5 amount_Ham,Sliced,Extralean + 13.6 amount_Hamburger_W_Toppings
 + 10.4 amount_Hotdog,_Plain + 3.4 amount_Kielbasa,Prk
 + 0.8 amount_Kiwifruit,Raw,Fresh + 0.2 amount_Lettuce,Iceberg,Raw
 + 3.3 amount_Macaroni,Ckd + 17.3 amount_Malt_O_Meal,Choc
 + 9.5 amount_New_E_Clamchwd,W_Mlk + 10.9 amount_Neweng_Clamchwd
 + 6.1 amount_Oatmeal + 1.1 amount_Oatmeal_Cookies + 1.2 amount_Oranges
 + 7.7 amount_Peanut_Butter + 0.7 amount_Peppers,_Sweet,_Raw
 + 10.1 amount_Pizza_W_Pepperoni + 6.2 amount_Poached_Eggs
 + 3.4 amount_Popcorn,Air_Popped + 13.8 amount_Pork
 + 2.2 amount_Potato_Chips,Bbqflvr + 3.7 amount_Potatoes,_Baked
 + 2.6 amount_Pretzels + 4 amount_Raisin_Brn,_Kellg'S
 + 1.9 amount_Rice_Krispies + 42.2 amount_Roasted_Chicken
 + 5.9 amount_Sardines_in_Oil + 6.7 amount_Scrambled_Eggs
 + 8.4 amount_Skim_Milk + 8.2 amount_Spaghetti_W__Sauce + 5.6 amount_Special_K
 + 11.1 amount_Splt_Pea&Hamsoup + 20.7 amount_Taco + 9.4 amount_Tofu
 + amount_Tomato,Red,Ripe,Raw + 4.1 amount_Tomato_Soup
 + 2 amount_Tortilla_Chip + 11.2 amount_Vegetbeef_Soup
 + 2.2 amount_Wheat_Bread + 2.3 amount_White_Bread + 2.1 amount_White_Rice
 + 22.7 amount_White_Tuna_in_Water >= 60
_C15: 500.2 amount_2%_Lowfat_Milk + 307.4 amount_3.3%_Fat,Whole_Milk
 + 73.1 amount_Apple,Raw,W_Skin + 35.2 amount_Apple_Pie + 92.3 amount_Banana
 + 888 amount_Beanbacn_Soup,W_Watr + 152.9 amount_Butter,Regular
 + 40.6 amount_Cap'N_Crunch + 15471 amount_Carrots,Raw
 + 53.6 amount_Celery,_Raw + 296.5 amount_Cheddar_Cheese
 + 1252.2 amount_Cheerios + 1308.7 amount_Chicknoodl_Soup
 + 101.8 amount_Chocolate_Chip_Cookies + 1252.2 amount_Corn_Flks,_Kellogg'S
 + 153.8 amount_Crm_Mshrm_Soup,W_Mlk + 5867.4 amount_Frozen_Broccoli
 + 106.6 amount_Frozen_Corn + 24 amount_Grapes
 + 126.3 amount_Hamburger_W_Toppings + 133 amount_Kiwifruit,Raw,Fresh
 + 66 amount_Lettuce,Iceberg,Raw + 163.7 amount_New_E_Clamchwd,W_Mlk
 + 20.1 amount_Neweng_Clamchwd + 37.4 amount_Oatmeal
 + 2.9 amount_Oatmeal_Cookies + 268.6 amount_Oranges
 + 467.7 amount_Peppers,_Sweet,_Raw + 281.9 amount_Pizza_W_Pepperoni
 + 316 amount_Poached_Eggs + 55.6 amount_Popcorn,Air_Popped + 14.7 amount_Pork
 + 61.5 amount_Potato_Chips,Bbqflvr + 1250.2 amount_Raisin_Brn,_Kellg'S
 + 1252.2 amount_Rice_Krispies + 77.4 amount_Roasted_Chicken
 + 53.8 amount_Sardines_in_Oil + 409.2 amount_Scrambled_Eggs
 + 499.8 amount_Skim_Milk + 3055.2 amount_Spaghetti_W__Sauce
 + 1252.2 amount_Special_K + 4872 amount_Splt_Pea&Hamsoup + 855 amount_Taco
 + 98.6 amount_Tofu + 766.3 amount_Tomato,Red,Ripe,Raw
 + 1393 amount_Tomato_Soup + 55.6 amount_Tortilla_Chip
 + 3785.1 amount_Vegetbeef_Soup + 68 amount_White_Tuna_in_Water <= 10000
_C16: 500.2 amount_2%_Lowfat_Milk + 307.4 amount_3.3%_Fat,Whole_Milk
 + 73.1 amount_Apple,Raw,W_Skin + 35.2 amount_Apple_Pie + 92.3 amount_Banana
 + 888 amount_Beanbacn_Soup,W_Watr + 152.9 amount_Butter,Regular
 + 40.6 amount_Cap'N_Crunch + 15471 amount_Carrots,Raw
 + 53.6 amount_Celery,_Raw + 296.5 amount_Cheddar_Cheese
 + 1252.2 amount_Cheerios + 1308.7 amount_Chicknoodl_Soup
 + 101.8 amount_Chocolate_Chip_Cookies + 1252.2 amount_Corn_Flks,_Kellogg'S
 + 153.8 amount_Crm_Mshrm_Soup,W_Mlk + 5867.4 amount_Frozen_Broccoli
 + 106.6 amount_Frozen_Corn + 24 amount_Grapes
 + 126.3 amount_Hamburger_W_Toppings + 133 amount_Kiwifruit,Raw,Fresh
 + 66 amount_Lettuce,Iceberg,Raw + 163.7 amount_New_E_Clamchwd,W_Mlk
 + 20.1 amount_Neweng_Clamchwd + 37.4 amount_Oatmeal
 + 2.9 amount_Oatmeal_Cookies + 268.6 amount_Oranges
 + 467.7 amount_Peppers,_Sweet,_Raw + 281.9 amount_Pizza_W_Pepperoni
 + 316 amount_Poached_Eggs + 55.6 amount_Popcorn,Air_Popped + 14.7 amount_Pork
 + 61.5 amount_Potato_Chips,Bbqflvr + 1250.2 amount_Raisin_Brn,_Kellg'S
 + 1252.2 amount_Rice_Krispies + 77.4 amount_Roasted_Chicken
 + 53.8 amount_Sardines_in_Oil + 409.2 amount_Scrambled_Eggs
 + 499.8 amount_Skim_Milk + 3055.2 amount_Spaghetti_W__Sauce
 + 1252.2 amount_Special_K + 4872 amount_Splt_Pea&Hamsoup + 855 amount_Taco
 + 98.6 amount_Tofu + 766.3 amount_Tomato,Red,Ripe,Raw
 + 1393 amount_Tomato_Soup + 55.6 amount_Tortilla_Chip
 + 3785.1 amount_Vegetbeef_Soup + 68 amount_White_Tuna_in_Water >= 1000
_C17: 2.3 amount_2%_Lowfat_Milk + 2.3 amount_3.3%_Fat,Whole_Milk
 + 7.9 amount_Apple,Raw,W_Skin + 0.9 amount_Apple_Pie + 10.4 amount_Banana
 + 1.5 amount_Beanbacn_Soup,W_Watr + 5.1 amount_Carrots,Raw
 + 2.8 amount_Celery,_Raw + 15.1 amount_Cheerios
 + 15.1 amount_Corn_Flks,_Kellogg'S + 2.2 amount_Crm_Mshrm_Soup,W_Mlk
 + 10.8 amount_Frankfurter,_Beef + 160.2 amount_Frozen_Broccoli
 + 5.2 amount_Frozen_Corn + amount_Grapes + 7.4 amount_Ham,Sliced,Extralean
 + 2.6 amount_Hamburger_W_Toppings + 0.1 amount_Hotdog,_Plain
 + 5.5 amount_Kielbasa,Prk + 74.5 amount_Kiwifruit,Raw,Fresh
 + 0.8 amount_Lettuce,Iceberg,Raw + 3.5 amount_New_E_Clamchwd,W_Mlk
 + 4.8 amount_Neweng_Clamchwd + 0.1 amount_Oatmeal_Cookies
 + 69.7 amount_Oranges + 66.1 amount_Peppers,_Sweet,_Raw
 + 1.6 amount_Pizza_W_Pepperoni + 9.6 amount_Potato_Chips,Bbqflvr
 + 15.6 amount_Potatoes,_Baked + 15.1 amount_Rice_Krispies
 + 0.1 amount_Scrambled_Eggs + 2.4 amount_Skim_Milk
 + 27.9 amount_Spaghetti_W__Sauce + 15.1 amount_Special_K
 + 7 amount_Splt_Pea&Hamsoup + 2.2 amount_Taco + 0.1 amount_Tofu
 + 23.5 amount_Tomato,Red,Ripe,Raw + 133 amount_Tomato_Soup
 + 4.8 amount_Vegetbeef_Soup <= 5000
_C18: 2.3 amount_2%_Lowfat_Milk + 2.3 amount_3.3%_Fat,Whole_Milk
 + 7.9 amount_Apple,Raw,W_Skin + 0.9 amount_Apple_Pie + 10.4 amount_Banana
 + 1.5 amount_Beanbacn_Soup,W_Watr + 5.1 amount_Carrots,Raw
 + 2.8 amount_Celery,_Raw + 15.1 amount_Cheerios
 + 15.1 amount_Corn_Flks,_Kellogg'S + 2.2 amount_Crm_Mshrm_Soup,W_Mlk
 + 10.8 amount_Frankfurter,_Beef + 160.2 amount_Frozen_Broccoli
 + 5.2 amount_Frozen_Corn + amount_Grapes + 7.4 amount_Ham,Sliced,Extralean
 + 2.6 amount_Hamburger_W_Toppings + 0.1 amount_Hotdog,_Plain
 + 5.5 amount_Kielbasa,Prk + 74.5 amount_Kiwifruit,Raw,Fresh
 + 0.8 amount_Lettuce,Iceberg,Raw + 3.5 amount_New_E_Clamchwd,W_Mlk
 + 4.8 amount_Neweng_Clamchwd + 0.1 amount_Oatmeal_Cookies
 + 69.7 amount_Oranges + 66.1 amount_Peppers,_Sweet,_Raw
 + 1.6 amount_Pizza_W_Pepperoni + 9.6 amount_Potato_Chips,Bbqflvr
 + 15.6 amount_Potatoes,_Baked + 15.1 amount_Rice_Krispies
 + 0.1 amount_Scrambled_Eggs + 2.4 amount_Skim_Milk
 + 27.9 amount_Spaghetti_W__Sauce + 15.1 amount_Special_K
 + 7 amount_Splt_Pea&Hamsoup + 2.2 amount_Taco + 0.1 amount_Tofu
 + 23.5 amount_Tomato,Red,Ripe,Raw + 133 amount_Tomato_Soup
 + 4.8 amount_Vegetbeef_Soup >= 400
_C19: 296.7 amount_2%_Lowfat_Milk + 291.3 amount_3.3%_Fat,Whole_Milk
 + 9.7 amount_Apple,Raw,W_Skin + 3.1 amount_Apple_Pie + 21 amount_Bagels
 + 6.8 amount_Banana + 81 amount_Beanbacn_Soup,W_Watr
 + 23.8 amount_Bologna,Turkey + 1.2 amount_Butter,Regular
 + 4.8 amount_Cap'N_Crunch + 14.9 amount_Carrots,Raw + 16 amount_Celery,_Raw
 + 202 amount_Cheddar_Cheese + 48.6 amount_Cheerios
 + 27.1 amount_Chicknoodl_Soup + 6.2 amount_Chocolate_Chip_Cookies
 + 0.9 amount_Corn_Flks,_Kellogg'S + 7.2 amount_Couscous
 + 178.6 amount_Crm_Mshrm_Soup,W_Mlk + 9 amount_Frankfurter,_Beef
 + 159 amount_Frozen_Broccoli + 3.3 amount_Frozen_Corn + 3.4 amount_Grapes
 + 2 amount_Ham,Sliced,Extralean + 51.4 amount_Hamburger_W_Toppings
 + 23.5 amount_Hotdog,_Plain + 11.4 amount_Kielbasa,Prk
 + 19.8 amount_Kiwifruit,Raw,Fresh + 3.8 amount_Lettuce,Iceberg,Raw
 + 4.9 amount_Macaroni,Ckd + 23.1 amount_Malt_O_Meal,Choc
 + 186 amount_New_E_Clamchwd,W_Mlk + 82.8 amount_Neweng_Clamchwd
 + 18.7 amount_Oatmeal + 6.7 amount_Oatmeal_Cookies + 52.4 amount_Oranges
 + 13.1 amount_Peanut_Butter + 6.7 amount_Peppers,_Sweet,_Raw
 + 64.6 amount_Pizza_W_Pepperoni + 24.5 amount_Poached_Eggs
 + 2.8 amount_Popcorn,Air_Popped + 59.9 amount_Pork
 + 14.2 amount_Potato_Chips,Bbqflvr + 22.7 amount_Potatoes,_Baked
 + 10.2 amount_Pretzels + 12.9 amount_Raisin_Brn,_Kellg'S
 + 4 amount_Rice_Krispies + 21.9 amount_Roasted_Chicken
 + 91.7 amount_Sardines_in_Oil + 42.6 amount_Scrambled_Eggs
 + 302.3 amount_Skim_Milk + 80.2 amount_Spaghetti_W__Sauce
 + 8.2 amount_Special_K + 33.6 amount_Splt_Pea&Hamsoup + 220.6 amount_Taco
 + 121.8 amount_Tofu + 6.2 amount_Tomato,Red,Ripe,Raw
 + 27.6 amount_Tomato_Soup + 43.7 amount_Tortilla_Chip
 + 32.6 amount_Vegetbeef_Soup + 10.8 amount_Wheat_Bread
 + 26.2 amount_White_Bread + 7.9 amount_White_Rice
 + 3.4 amount_White_Tuna_in_Water <= 1500
_C2: 121.2 amount_2%_Lowfat_Milk + 149.9 amount_3.3%_Fat,Whole_Milk
 + 81.4 amount_Apple,Raw,W_Skin + 67.2 amount_Apple_Pie + 78 amount_Bagels
 + 104.9 amount_Banana + 172 amount_Beanbacn_Soup,W_Watr
 + 56.4 amount_Bologna,Turkey + 35.8 amount_Butter,Regular
 + 119.6 amount_Cap'N_Crunch + 23.7 amount_Carrots,Raw
 + 6.4 amount_Celery,_Raw + 112.7 amount_Cheddar_Cheese + 111 amount_Cheerios
 + 150.1 amount_Chicknoodl_Soup + 78.1 amount_Chocolate_Chip_Cookies
 + 110.5 amount_Corn_Flks,_Kellogg'S + 100.8 amount_Couscous
 + 203.4 amount_Crm_Mshrm_Soup,W_Mlk + 141.8 amount_Frankfurter,_Beef
 + 73.8 amount_Frozen_Broccoli + 72.2 amount_Frozen_Corn + 15.1 amount_Grapes
 + 37.1 amount_Ham,Sliced,Extralean + 275 amount_Hamburger_W_Toppings
 + 242.1 amount_Hotdog,_Plain + 80.6 amount_Kielbasa,Prk
 + 46.4 amount_Kiwifruit,Raw,Fresh + 2.6 amount_Lettuce,Iceberg,Raw
 + 98.7 amount_Macaroni,Ckd + 607.2 amount_Malt_O_Meal,Choc
 + 163.7 amount_New_E_Clamchwd,W_Mlk + 175.7 amount_Neweng_Clamchwd
 + 145.1 amount_Oatmeal + 81 amount_Oatmeal_Cookies + 61.6 amount_Oranges
 + 188.5 amount_Peanut_Butter + 20 amount_Peppers,_Sweet,_Raw
 + 181 amount_Pizza_W_Pepperoni + 74.5 amount_Poached_Eggs
 + 108.3 amount_Popcorn,Air_Popped + 710.8 amount_Pork
 + 139.2 amount_Potato_Chips,Bbqflvr + 171.5 amount_Potatoes,_Baked
 + 108 amount_Pretzels + 115.1 amount_Raisin_Brn,_Kellg'S
 + 112.2 amount_Rice_Krispies + 277.4 amount_Roasted_Chicken
 + 49.9 amount_Sardines_in_Oil + 99.6 amount_Scrambled_Eggs
 + 85.5 amount_Skim_Milk + 358.2 amount_Spaghetti_W__Sauce
 + 110.8 amount_Special_K + 184.8 amount_Splt_Pea&Hamsoup + 369.4 amount_Taco
 + 88.2 amount_Tofu + 25.8 amount_Tomato,Red,Ripe,Raw
 + 170.7 amount_Tomato_Soup + 142 amount_Tortilla_Chip
 + 158.1 amount_Vegetbeef_Soup + 65 amount_Wheat_Bread + 65 amount_White_Bread
 + 102.7 amount_White_Rice + 115.6 amount_White_Tuna_in_Water >= 1500
_C20: 296.7 amount_2%_Lowfat_Milk + 291.3 amount_3.3%_Fat,Whole_Milk
 + 9.7 amount_Apple,Raw,W_Skin + 3.1 amount_Apple_Pie + 21 amount_Bagels
 + 6.8 amount_Banana + 81 amount_Beanbacn_Soup,W_Watr
 + 23.8 amount_Bologna,Turkey + 1.2 amount_Butter,Regular
 + 4.8 amount_Cap'N_Crunch + 14.9 amount_Carrots,Raw + 16 amount_Celery,_Raw
 + 202 amount_Cheddar_Cheese + 48.6 amount_Cheerios
 + 27.1 amount_Chicknoodl_Soup + 6.2 amount_Chocolate_Chip_Cookies
 + 0.9 amount_Corn_Flks,_Kellogg'S + 7.2 amount_Couscous
 + 178.6 amount_Crm_Mshrm_Soup,W_Mlk + 9 amount_Frankfurter,_Beef
 + 159 amount_Frozen_Broccoli + 3.3 amount_Frozen_Corn + 3.4 amount_Grapes
 + 2 amount_Ham,Sliced,Extralean + 51.4 amount_Hamburger_W_Toppings
 + 23.5 amount_Hotdog,_Plain + 11.4 amount_Kielbasa,Prk
 + 19.8 amount_Kiwifruit,Raw,Fresh + 3.8 amount_Lettuce,Iceberg,Raw
 + 4.9 amount_Macaroni,Ckd + 23.1 amount_Malt_O_Meal,Choc
 + 186 amount_New_E_Clamchwd,W_Mlk + 82.8 amount_Neweng_Clamchwd
 + 18.7 amount_Oatmeal + 6.7 amount_Oatmeal_Cookies + 52.4 amount_Oranges
 + 13.1 amount_Peanut_Butter + 6.7 amount_Peppers,_Sweet,_Raw
 + 64.6 amount_Pizza_W_Pepperoni + 24.5 amount_Poached_Eggs
 + 2.8 amount_Popcorn,Air_Popped + 59.9 amount_Pork
 + 14.2 amount_Potato_Chips,Bbqflvr + 22.7 amount_Potatoes,_Baked
 + 10.2 amount_Pretzels + 12.9 amount_Raisin_Brn,_Kellg'S
 + 4 amount_Rice_Krispies + 21.9 amount_Roasted_Chicken
 + 91.7 amount_Sardines_in_Oil + 42.6 amount_Scrambled_Eggs
 + 302.3 amount_Skim_Milk + 80.2 amount_Spaghetti_W__Sauce
 + 8.2 amount_Special_K + 33.6 amount_Splt_Pea&Hamsoup + 220.6 amount_Taco
 + 121.8 amount_Tofu + 6.2 amount_Tomato,Red,Ripe,Raw
 + 27.6 amount_Tomato_Soup + 43.7 amount_Tortilla_Chip
 + 32.6 amount_Vegetbeef_Soup + 10.8 amount_Wheat_Bread
 + 26.2 amount_White_Bread + 7.9 amount_White_Rice
 + 3.4 amount_White_Tuna_in_Water >= 700
_C21: 0.1 amount_2%_Lowfat_Milk + 0.1 amount_3.3%_Fat,Whole_Milk
 + 0.2 amount_Apple,Raw,W_Skin + 0.1 amount_Apple_Pie + amount_Bagels
 + 0.4 amount_Banana + 2 amount_Beanbacn_Soup,W_Watr
 + 0.4 amount_Bologna,Turkey + 7.5 amount_Cap'N_Crunch
 + 0.3 amount_Carrots,Raw + 0.2 amount_Celery,_Raw + 0.2 amount_Cheddar_Cheese
 + 4.5 amount_Cheerios + 1.5 amount_Chicknoodl_Soup
 + 0.4 amount_Chocolate_Chip_Cookies + 1.8 amount_Corn_Flks,_Kellogg'S
 + 0.3 amount_Couscous + 0.6 amount_Crm_Mshrm_Soup,W_Mlk
 + 0.6 amount_Frankfurter,_Beef + 2.3 amount_Frozen_Broccoli
 + 0.3 amount_Frozen_Corn + 0.1 amount_Grapes
 + 0.2 amount_Ham,Sliced,Extralean + 2.5 amount_Hamburger_W_Toppings
 + 2.3 amount_Hotdog,_Plain + 0.4 amount_Kielbasa,Prk
 + 0.3 amount_Kiwifruit,Raw,Fresh + 0.1 amount_Lettuce,Iceberg,Raw
 + amount_Macaroni,Ckd + 4.7 amount_Malt_O_Meal,Choc
 + 1.5 amount_New_E_Clamchwd,W_Mlk + 2.8 amount_Neweng_Clamchwd
 + 1.6 amount_Oatmeal + 0.5 amount_Oatmeal_Cookies + 0.1 amount_Oranges
 + 0.6 amount_Peanut_Butter + 0.3 amount_Peppers,_Sweet,_Raw
 + 0.9 amount_Pizza_W_Pepperoni + 0.7 amount_Poached_Eggs
 + 0.8 amount_Popcorn,Air_Popped + 0.4 amount_Pork
 + 0.5 amount_Potato_Chips,Bbqflvr + 4.3 amount_Potatoes,_Baked
 + 1.2 amount_Pretzels + 16.8 amount_Raisin_Brn,_Kellg'S
 + 1.8 amount_Rice_Krispies + 1.8 amount_Roasted_Chicken
 + 0.7 amount_Sardines_in_Oil + 0.7 amount_Scrambled_Eggs
 + 0.1 amount_Skim_Milk + 2.3 amount_Spaghetti_W__Sauce + 4.5 amount_Special_K
 + 2.1 amount_Splt_Pea&Hamsoup + 2.4 amount_Taco + 6.2 amount_Tofu
 + 0.6 amount_Tomato,Red,Ripe,Raw + 3.5 amount_Tomato_Soup
 + 0.4 amount_Tortilla_Chip + 2.2 amount_Vegetbeef_Soup
 + 0.7 amount_Wheat_Bread + 0.8 amount_White_Bread + 0.9 amount_White_Rice
 + 0.5 amount_White_Tuna_in_Water <= 40
_C22: 0.1 amount_2%_Lowfat_Milk + 0.1 amount_3.3%_Fat,Whole_Milk
 + 0.2 amount_Apple,Raw,W_Skin + 0.1 amount_Apple_Pie + amount_Bagels
 + 0.4 amount_Banana + 2 amount_Beanbacn_Soup,W_Watr
 + 0.4 amount_Bologna,Turkey + 7.5 amount_Cap'N_Crunch
 + 0.3 amount_Carrots,Raw + 0.2 amount_Celery,_Raw + 0.2 amount_Cheddar_Cheese
 + 4.5 amount_Cheerios + 1.5 amount_Chicknoodl_Soup
 + 0.4 amount_Chocolate_Chip_Cookies + 1.8 amount_Corn_Flks,_Kellogg'S
 + 0.3 amount_Couscous + 0.6 amount_Crm_Mshrm_Soup,W_Mlk
 + 0.6 amount_Frankfurter,_Beef + 2.3 amount_Frozen_Broccoli
 + 0.3 amount_Frozen_Corn + 0.1 amount_Grapes
 + 0.2 amount_Ham,Sliced,Extralean + 2.5 amount_Hamburger_W_Toppings
 + 2.3 amount_Hotdog,_Plain + 0.4 amount_Kielbasa,Prk
 + 0.3 amount_Kiwifruit,Raw,Fresh + 0.1 amount_Lettuce,Iceberg,Raw
 + amount_Macaroni,Ckd + 4.7 amount_Malt_O_Meal,Choc
 + 1.5 amount_New_E_Clamchwd,W_Mlk + 2.8 amount_Neweng_Clamchwd
 + 1.6 amount_Oatmeal + 0.5 amount_Oatmeal_Cookies + 0.1 amount_Oranges
 + 0.6 amount_Peanut_Butter + 0.3 amount_Peppers,_Sweet,_Raw
 + 0.9 amount_Pizza_W_Pepperoni + 0.7 amount_Poached_Eggs
 + 0.8 amount_Popcorn,Air_Popped + 0.4 amount_Pork
 + 0.5 amount_Potato_Chips,Bbqflvr + 4.3 amount_Potatoes,_Baked
 + 1.2 amount_Pretzels + 16.8 amount_Raisin_Brn,_Kellg'S
 + 1.8 amount_Rice_Krispies + 1.8 amount_Roasted_Chicken
 + 0.7 amount_Sardines_in_Oil + 0.7 amount_Scrambled_Eggs
 + 0.1 amount_Skim_Milk + 2.3 amount_Spaghetti_W__Sauce + 4.5 amount_Special_K
 + 2.1 amount_Splt_Pea&Hamsoup + 2.4 amount_Taco + 6.2 amount_Tofu
 + 0.6 amount_Tomato,Red,Ripe,Raw + 3.5 amount_Tomato_Soup
 + 0.4 amount_Tortilla_Chip + 2.2 amount_Vegetbeef_Soup
 + 0.7 amount_Wheat_Bread + 0.8 amount_White_Bread + 0.9 amount_White_Rice
 + 0.5 amount_White_Tuna_in_Water >= 10
_C3: 18.3 amount_2%_Lowfat_Milk + 33.2 amount_3.3%_Fat,Whole_Milk
 + 2.5 amount_Beanbacn_Soup,W_Watr + 28.1 amount_Bologna,Turkey
 + 10.9 amount_Butter,Regular + 29.4 amount_Cheddar_Cheese
 + 12.3 amount_Chicknoodl_Soup + 5.1 amount_Chocolate_Chip_Cookies
 + 19.8 amount_Crm_Mshrm_Soup,W_Mlk + 27.4 amount_Frankfurter,_Beef
 + 13.3 amount_Ham,Sliced,Extralean + 42.8 amount_Hamburger_W_Toppings
 + 44.1 amount_Hotdog,_Plain + 17.4 amount_Kielbasa,Prk
 + 22.3 amount_New_E_Clamchwd,W_Mlk + 10 amount_Neweng_Clamchwd
 + 14.2 amount_Pizza_W_Pepperoni + 211.5 amount_Poached_Eggs
 + 105.1 amount_Pork + 129.9 amount_Roasted_Chicken
 + 34.1 amount_Sardines_in_Oil + 211.2 amount_Scrambled_Eggs
 + 4.4 amount_Skim_Milk + 7.2 amount_Splt_Pea&Hamsoup + 56.4 amount_Taco
 + 10 amount_Vegetbeef_Soup + 35.7 amount_White_Tuna_in_Water <= 240
_C4: 18.3 amount_2%_Lowfat_Milk + 33.2 amount_3.3%_Fat,Whole_Milk
 + 2.5 amount_Beanbacn_Soup,W_Watr + 28.1 amount_Bologna,Turkey
 + 10.9 amount_Butter,Regular + 29.4 amount_Cheddar_Cheese
 + 12.3 amount_Chicknoodl_Soup + 5.1 amount_Chocolate_Chip_Cookies
 + 19.8 amount_Crm_Mshrm_Soup,W_Mlk + 27.4 amount_Frankfurter,_Beef
 + 13.3 amount_Ham,Sliced,Extralean + 42.8 amount_Hamburger_W_Toppings
 + 44.1 amount_Hotdog,_Plain + 17.4 amount_Kielbasa,Prk
 + 22.3 amount_New_E_Clamchwd,W_Mlk + 10 amount_Neweng_Clamchwd
 + 14.2 amount_Pizza_W_Pepperoni + 211.5 amount_Poached_Eggs
 + 105.1 amount_Pork + 129.9 amount_Roasted_Chicken
 + 34.1 amount_Sardines_in_Oil + 211.2 amount_Scrambled_Eggs
 + 4.4 amount_Skim_Milk + 7.2 amount_Splt_Pea&Hamsoup + 56.4 amount_Taco
 + 10 amount_Vegetbeef_Soup + 35.7 amount_White_Tuna_in_Water >= 30
_C5: 4.7 amount_2%_Lowfat_Milk + 8.1 amount_3.3%_Fat,Whole_Milk
 + 0.5 amount_Apple,Raw,W_Skin + 3.1 amount_Apple_Pie + 0.5 amount_Bagels
 + 0.5 amount_Banana + 5.9 amount_Beanbacn_Soup,W_Watr
 + 4.3 amount_Bologna,Turkey + 4.1 amount_Butter,Regular
 + 2.6 amount_Cap'N_Crunch + 0.1 amount_Carrots,Raw + 0.1 amount_Celery,_Raw
 + 9.3 amount_Cheddar_Cheese + 1.8 amount_Cheerios
 + 4.6 amount_Chicknoodl_Soup + 4.5 amount_Chocolate_Chip_Cookies
 + 0.1 amount_Corn_Flks,_Kellogg'S + 0.1 amount_Couscous
 + 13.6 amount_Crm_Mshrm_Soup,W_Mlk + 12.8 amount_Frankfurter,_Beef
 + 0.8 amount_Frozen_Broccoli + 0.6 amount_Frozen_Corn + 0.1 amount_Grapes
 + 1.4 amount_Ham,Sliced,Extralean + 10.2 amount_Hamburger_W_Toppings
 + 14.5 amount_Hotdog,_Plain + 7.1 amount_Kielbasa,Prk
 + 0.3 amount_Kiwifruit,Raw,Fresh + 0.5 amount_Macaroni,Ckd
 + 1.5 amount_Malt_O_Meal,Choc + 6.6 amount_New_E_Clamchwd,W_Mlk
 + 5 amount_Neweng_Clamchwd + 2.3 amount_Oatmeal + 3.3 amount_Oatmeal_Cookies
 + 0.2 amount_Oranges + 16 amount_Peanut_Butter
 + 0.1 amount_Peppers,_Sweet,_Raw + 7 amount_Pizza_W_Pepperoni
 + 5 amount_Poached_Eggs + 1.2 amount_Popcorn,Air_Popped + 72.2 amount_Pork
 + 9.2 amount_Potato_Chips,Bbqflvr + 0.2 amount_Potatoes,_Baked
 + amount_Pretzels + 0.7 amount_Raisin_Brn,_Kellg'S + 0.2 amount_Rice_Krispies
 + 10.8 amount_Roasted_Chicken + 2.7 amount_Sardines_in_Oil
 + 7.3 amount_Scrambled_Eggs + 0.4 amount_Skim_Milk
 + 12.3 amount_Spaghetti_W__Sauce + 0.1 amount_Special_K
 + 4 amount_Splt_Pea&Hamsoup + 20.6 amount_Taco + 5.5 amount_Tofu
 + 0.4 amount_Tomato,Red,Ripe,Raw + 3.8 amount_Tomato_Soup
 + 7.4 amount_Tortilla_Chip + 3.8 amount_Vegetbeef_Soup + amount_Wheat_Bread
 + amount_White_Bread + 0.2 amount_White_Rice + 2.1 amount_White_Tuna_in_Water
 <= 70
_C6: 4.7 amount_2%_Lowfat_Milk + 8.1 amount_3.3%_Fat,Whole_Milk
 + 0.5 amount_Apple,Raw,W_Skin + 3.1 amount_Apple_Pie + 0.5 amount_Bagels
 + 0.5 amount_Banana + 5.9 amount_Beanbacn_Soup,W_Watr
 + 4.3 amount_Bologna,Turkey + 4.1 amount_Butter,Regular
 + 2.6 amount_Cap'N_Crunch + 0.1 amount_Carrots,Raw + 0.1 amount_Celery,_Raw
 + 9.3 amount_Cheddar_Cheese + 1.8 amount_Cheerios
 + 4.6 amount_Chicknoodl_Soup + 4.5 amount_Chocolate_Chip_Cookies
 + 0.1 amount_Corn_Flks,_Kellogg'S + 0.1 amount_Couscous
 + 13.6 amount_Crm_Mshrm_Soup,W_Mlk + 12.8 amount_Frankfurter,_Beef
 + 0.8 amount_Frozen_Broccoli + 0.6 amount_Frozen_Corn + 0.1 amount_Grapes
 + 1.4 amount_Ham,Sliced,Extralean + 10.2 amount_Hamburger_W_Toppings
 + 14.5 amount_Hotdog,_Plain + 7.1 amount_Kielbasa,Prk
 + 0.3 amount_Kiwifruit,Raw,Fresh + 0.5 amount_Macaroni,Ckd
 + 1.5 amount_Malt_O_Meal,Choc + 6.6 amount_New_E_Clamchwd,W_Mlk
 + 5 amount_Neweng_Clamchwd + 2.3 amount_Oatmeal + 3.3 amount_Oatmeal_Cookies
 + 0.2 amount_Oranges + 16 amount_Peanut_Butter
 + 0.1 amount_Peppers,_Sweet,_Raw + 7 amount_Pizza_W_Pepperoni
 + 5 amount_Poached_Eggs + 1.2 amount_Popcorn,Air_Popped + 72.2 amount_Pork
 + 9.2 amount_Potato_Chips,Bbqflvr + 0.2 amount_Potatoes,_Baked
 + amount_Pretzels + 0.7 amount_Raisin_Brn,_Kellg'S + 0.2 amount_Rice_Krispies
 + 10.8 amount_Roasted_Chicken + 2.7 amount_Sardines_in_Oil
 + 7.3 amount_Scrambled_Eggs + 0.4 amount_Skim_Milk
 + 12.3 amount_Spaghetti_W__Sauce + 0.1 amount_Special_K
 + 4 amount_Splt_Pea&Hamsoup + 20.6 amount_Taco + 5.5 amount_Tofu
 + 0.4 amount_Tomato,Red,Ripe,Raw + 3.8 amount_Tomato_Soup
 + 7.4 amount_Tortilla_Chip + 3.8 amount_Vegetbeef_Soup + amount_Wheat_Bread
 + amount_White_Bread + 0.2 amount_White_Rice + 2.1 amount_White_Tuna_in_Water
 >= 20
_C7: 121.8 amount_2%_Lowfat_Milk + 119.6 amount_3.3%_Fat,Whole_Milk
 + 75.4 amount_Apple_Pie + 151.4 amount_Bagels + 1.1 amount_Banana
 + 951.3 amount_Beanbacn_Soup,W_Watr + 248.9 amount_Bologna,Turkey
 + 41.3 amount_Butter,Regular + 213.3 amount_Cap'N_Crunch
 + 19.2 amount_Carrots,Raw + 34.8 amount_Celery,_Raw
 + 173.7 amount_Cheddar_Cheese + 307.6 amount_Cheerios
 + 1862.2 amount_Chicknoodl_Soup + 57.8 amount_Chocolate_Chip_Cookies
 + 290.5 amount_Corn_Flks,_Kellogg'S + 4.5 amount_Couscous
 + 1076.3 amount_Crm_Mshrm_Soup,W_Mlk + 461.7 amount_Frankfurter,_Beef
 + 68.2 amount_Frozen_Broccoli + 2.5 amount_Frozen_Corn + 0.5 amount_Grapes
 + 405.1 amount_Ham,Sliced,Extralean + 563.9 amount_Hamburger_W_Toppings
 + 670.3 amount_Hotdog,_Plain + 279.8 amount_Kielbasa,Prk
 + 3.8 amount_Kiwifruit,Raw,Fresh + 1.8 amount_Lettuce,Iceberg,Raw
 + 0.7 amount_Macaroni,Ckd + 16.5 amount_Malt_O_Meal,Choc
 + 992 amount_New_E_Clamchwd,W_Mlk + 1864.9 amount_Neweng_Clamchwd
 + 2.3 amount_Oatmeal + 68.9 amount_Oatmeal_Cookies
 + 155.5 amount_Peanut_Butter + 1.5 amount_Peppers,_Sweet,_Raw
 + 267 amount_Pizza_W_Pepperoni + 140 amount_Poached_Eggs
 + 1.1 amount_Popcorn,Air_Popped + 38.4 amount_Pork
 + 212.6 amount_Potato_Chips,Bbqflvr + 15.2 amount_Potatoes,_Baked
 + 486.2 amount_Pretzels + 204.4 amount_Raisin_Brn,_Kellg'S
 + 340.8 amount_Rice_Krispies + 125.6 amount_Roasted_Chicken
 + 121.2 amount_Sardines_in_Oil + 168 amount_Scrambled_Eggs
 + 126.2 amount_Skim_Milk + 1237.1 amount_Spaghetti_W__Sauce
 + 265.5 amount_Special_K + 964.8 amount_Splt_Pea&Hamsoup + 802 amount_Taco
 + 8.1 amount_Tofu + 11.1 amount_Tomato,Red,Ripe,Raw
 + 1744.4 amount_Tomato_Soup + 149.7 amount_Tortilla_Chip
 + 1915.1 amount_Vegetbeef_Soup + 134.5 amount_Wheat_Bread
 + 132.5 amount_White_Bread + 0.8 amount_White_Rice
 + 333.2 amount_White_Tuna_in_Water <= 2000
_C8: 121.8 amount_2%_Lowfat_Milk + 119.6 amount_3.3%_Fat,Whole_Milk
 + 75.4 amount_Apple_Pie + 151.4 amount_Bagels + 1.1 amount_Banana
 + 951.3 amount_Beanbacn_Soup,W_Watr + 248.9 amount_Bologna,Turkey
 + 41.3 amount_Butter,Regular + 213.3 amount_Cap'N_Crunch
 + 19.2 amount_Carrots,Raw + 34.8 amount_Celery,_Raw
 + 173.7 amount_Cheddar_Cheese + 307.6 amount_Cheerios
 + 1862.2 amount_Chicknoodl_Soup + 57.8 amount_Chocolate_Chip_Cookies
 + 290.5 amount_Corn_Flks,_Kellogg'S + 4.5 amount_Couscous
 + 1076.3 amount_Crm_Mshrm_Soup,W_Mlk + 461.7 amount_Frankfurter,_Beef
 + 68.2 amount_Frozen_Broccoli + 2.5 amount_Frozen_Corn + 0.5 amount_Grapes
 + 405.1 amount_Ham,Sliced,Extralean + 563.9 amount_Hamburger_W_Toppings
 + 670.3 amount_Hotdog,_Plain + 279.8 amount_Kielbasa,Prk
 + 3.8 amount_Kiwifruit,Raw,Fresh + 1.8 amount_Lettuce,Iceberg,Raw
 + 0.7 amount_Macaroni,Ckd + 16.5 amount_Malt_O_Meal,Choc
 + 992 amount_New_E_Clamchwd,W_Mlk + 1864.9 amount_Neweng_Clamchwd
 + 2.3 amount_Oatmeal + 68.9 amount_Oatmeal_Cookies
 + 155.5 amount_Peanut_Butter + 1.5 amount_Peppers,_Sweet,_Raw
 + 267 amount_Pizza_W_Pepperoni + 140 amount_Poached_Eggs
 + 1.1 amount_Popcorn,Air_Popped + 38.4 amount_Pork
 + 212.6 amount_Potato_Chips,Bbqflvr + 15.2 amount_Potatoes,_Baked
 + 486.2 amount_Pretzels + 204.4 amount_Raisin_Brn,_Kellg'S
 + 340.8 amount_Rice_Krispies + 125.6 amount_Roasted_Chicken
 + 121.2 amount_Sardines_in_Oil + 168 amount_Scrambled_Eggs
 + 126.2 amount_Skim_Milk + 1237.1 amount_Spaghetti_W__Sauce
 + 265.5 amount_Special_K + 964.8 amount_Splt_Pea&Hamsoup + 802 amount_Taco
 + 8.1 amount_Tofu + 11.1 amount_Tomato,Red,Ripe,Raw
 + 1744.4 amount_Tomato_Soup + 149.7 amount_Tortilla_Chip
 + 1915.1 amount_Vegetbeef_Soup + 134.5 amount_Wheat_Bread
 + 132.5 amount_White_Bread + 0.8 amount_White_Rice
 + 333.2 amount_White_Tuna_in_Water >= 800
_C9: 11.7 amount_2%_Lowfat_Milk + 11.4 amount_3.3%_Fat,Whole_Milk
 + 21 amount_Apple,Raw,W_Skin + 9.6 amount_Apple_Pie + 15.1 amount_Bagels
 + 26.7 amount_Banana + 22.8 amount_Beanbacn_Soup,W_Watr
 + 0.3 amount_Bologna,Turkey + 23 amount_Cap'N_Crunch + 5.6 amount_Carrots,Raw
 + 1.5 amount_Celery,_Raw + 0.4 amount_Cheddar_Cheese + 19.6 amount_Cheerios
 + 18.7 amount_Chicknoodl_Soup + 9.3 amount_Chocolate_Chip_Cookies
 + 24.5 amount_Corn_Flks,_Kellogg'S + 20.9 amount_Couscous
 + 15 amount_Crm_Mshrm_Soup,W_Mlk + 0.8 amount_Frankfurter,_Beef
 + 13.6 amount_Frozen_Broccoli + 17.1 amount_Frozen_Corn + 4.1 amount_Grapes
 + 0.3 amount_Ham,Sliced,Extralean + 32.7 amount_Hamburger_W_Toppings
 + 18 amount_Hotdog,_Plain + 0.6 amount_Kielbasa,Prk
 + 11.3 amount_Kiwifruit,Raw,Fresh + 0.4 amount_Lettuce,Iceberg,Raw
 + 19.8 amount_Macaroni,Ckd + 128.2 amount_Malt_O_Meal,Choc
 + 16.6 amount_New_E_Clamchwd,W_Mlk + 21.8 amount_Neweng_Clamchwd
 + 25.3 amount_Oatmeal + 12.4 amount_Oatmeal_Cookies + 15.4 amount_Oranges
 + 6.9 amount_Peanut_Butter + 4.8 amount_Peppers,_Sweet,_Raw
 + 19.9 amount_Pizza_W_Pepperoni + 0.6 amount_Poached_Eggs
 + 22.1 amount_Popcorn,Air_Popped + 15 amount_Potato_Chips,Bbqflvr
 + 39.9 amount_Potatoes,_Baked + 22.5 amount_Pretzels
 + 27.9 amount_Raisin_Brn,_Kellg'S + 24.8 amount_Rice_Krispies
 + 1.3 amount_Scrambled_Eggs + 11.9 amount_Skim_Milk
 + 58.3 amount_Spaghetti_W__Sauce + 21.3 amount_Special_K
 + 26.8 amount_Splt_Pea&Hamsoup + 26.7 amount_Taco + 2.2 amount_Tofu
 + 5.7 amount_Tomato,Red,Ripe,Raw + 33.2 amount_Tomato_Soup
 + 17.8 amount_Tortilla_Chip + 20.4 amount_Vegetbeef_Soup
 + 12.4 amount_Wheat_Bread + 11.8 amount_White_Bread + 22.3 amount_White_Rice
 <= 450
End
